40
1 0 25
2 0 120
2 1 273
3 0 169
3 1 185
3 2 304
4 0 30
4 1 122
4 2 95
4 3 165
5 0 64
5 1 23
5 2 19
5 3 154
5 4 16
6 0 97
6 1 73
6 2 80
6 3 315
6 4 95
7 0 83
7 1 143
7 2 113
7 3 215
7 5 317
7 6 8
8 0 284
8 1 264
8 2 177
8 4 111
8 5 264
8 6 133
8 7 256
9 0 283
9 1 222
9 2 38
9 3 269
9 4 139
9 6 210
9 7 63
9 8 17
10 0 78
10 1 176
10 2 183
10 3 114
10 5 265
10 6 186
10 7 190
10 8 296
10 9 258
11 0 288
11 1 44
11 2 6
11 4 140
11 5 216
11 6 78
11 7 271
11 8 177
11 9 303
11 10 282
12 0 155
12 1 109
12 2 173
12 3 119
12 4 154
12 5 121
12 6 142
12 7 82
12 8 136
12 9 131
12 10 284
12 11 241
13 0 273
13 1 197
13 2 133
13 3 62
13 4 127
13 5 122
13 6 224
13 7 143
13 8 167
13 9 282
13 10 51
13 11 101
14 0 315
14 1 150
14 2 66
14 3 216
14 4 305
14 5 25
14 7 85
14 8 264
14 9 301
14 10 146
14 11 130
14 12 51
14 13 292
15 0 284
15 1 297
15 2 63
15 3 281
15 4 271
15 5 32
15 6 263
15 9 317
15 10 141
15 12 2
15 14 226
16 0 186
16 1 167
16 2 54
16 3 178
16 4 152
16 5 251
16 6 111
16 7 261
16 8 41
16 9 158
16 10 273
16 11 233
16 12 89
16 13 197
16 14 215
16 15 113
17 0 219
17 1 262
17 2 91
17 3 39
17 4 314
17 5 171
17 6 6
17 7 135
17 8 78
17 9 246
17 10 220
17 11 290
17 12 222
17 13 265
17 15 308
17 16 282
18 0 276
18 1 71
18 3 265
18 4 272
18 5 129
18 6 303
18 8 14
18 9 210
18 10 43
18 11 142
18 12 28
18 13 23
18 14 228
18 15 303
18 16 277
18 17 88
19 0 290
19 1 85
19 2 109
19 3 176
19 4 151
19 5 269
19 6 156
19 7 146
19 8 68
19 9 199
19 10 234
19 11 101
19 12 62
19 13 319
19 14 97
19 15 249
19 16 165
19 18 232
20 0 140
20 1 299
20 2 151
20 4 290
20 5 263
20 6 35
20 7 76
20 8 34
20 9 37
20 10 213
20 11 128
20 12 99
20 13 124
20 14 2
20 15 181
20 16 13
20 17 247
20 18 230
20 19 274
21 0 273
21 1 83
21 2 64
21 4 258
21 5 208
21 6 33
21 7 243
21 8 119
21 9 166
21 10 253
21 11 127
21 12 99
21 13 73
21 15 84
21 16 3
21 17 87
21 18 144
21 19 170
21 20 134
22 0 44
22 1 49
22 2 153
22 3 84
22 5 168
22 6 106
22 7 226
22 8 97
22 10 119
22 11 293
22 12 116
22 13 303
22 14 92
22 15 217
22 16 250
22 17 52
22 18 304
22 19 180
22 20 264
22 21 25
23 0 44
23 1 2
23 2 75
23 3 131
23 4 169
23 5 173
23 6 315
23 7 52
23 8 36
23 9 257
23 10 80
23 11 118
23 12 95
23 13 217
23 14 205
23 15 65
23 17 246
23 18 56
23 19 11
23 20 86
23 21 169
23 22 241
24 0 138
24 1 18
24 2 77
24 3 42
24 4 40
24 5 204
24 6 255
24 7 290
24 8 91
24 9 193
24 10 271
24 11 308
24 12 217
24 13 280
24 14 199
24 15 283
24 16 145
24 17 124
24 18 181
24 21 51
24 22 228
24 23 317
25 0 295
25 1 292
25 2 116
25 3 74
25 5 45
25 6 198
25 7 46
25 8 102
25 9 73
25 10 219
25 11 11
25 12 159
25 13 277
25 14 142
25 15 71
25 16 114
25 17 48
25 18 61
25 20 85
25 21 229
25 22 232
25 23 294
25 24 12
26 1 272
26 3 167
26 4 198
26 5 95
26 6 61
26 7 84
26 8 260
26 9 165
26 10 77
26 11 21
26 12 169
26 13 58
26 14 40
26 15 21
26 16 259
26 17 24
26 18 320
26 19 188
26 20 15
26 22 127
26 23 109
26 24 87
26 25 263
27 0 121
27 1 283
27 2 149
27 4 4
27 5 254
27 6 111
27 7 168
27 8 21
27 9 217
27 10 162
27 11 132
27 12 139
27 13 319
27 14 75
27 15 182
27 16 280
27 17 309
27 18 298
27 19 128
27 21 281
27 22 230
27 23 283
27 24 29
27 25 242
27 26 155
28 0 255
28 1 196
28 2 44
28 3 288
28 4 271
28 5 284
28 6 104
28 10 290
28 11 237
28 12 168
28 13 251
28 14 116
28 15 155
28 16 240
28 17 292
28 18 255
28 19 304
28 20 247
28 21 41
28 22 157
28 23 252
28 24 265
28 25 159
28 26 305
28 27 108
29 0 32
29 1 286
29 4 88
29 5 295
29 6 150
29 7 160
29 8 240
29 9 287
29 10 160
29 11 19
29 12 44
29 13 250
29 14 104
29 15 138
29 16 205
29 17 97
29 18 96
29 19 20
29 20 111
29 21 73
29 22 281
29 23 249
29 24 164
29 25 98
29 26 113
29 28 190
30 0 289
30 2 266
30 4 262
30 5 194
30 6 1
30 7 116
30 8 30
30 9 217
30 10 232
30 11 238
30 12 237
30 13 185
30 14 249
30 15 289
30 16 176
30 17 234
30 18 313
30 19 269
30 21 70
30 22 207
30 23 101
30 24 248
30 25 293
30 26 207
30 27 1
30 28 295
30 29 245
31 0 119
31 1 51
31 2 274
31 3 220
31 4 87
31 5 144
31 7 102
31 8 169
31 9 116
31 10 78
31 11 17
31 12 283
31 13 32
31 14 261
31 15 173
31 16 200
31 17 19
31 19 35
31 20 165
31 22 167
31 23 147
31 24 302
31 25 130
31 26 36
31 27 198
31 28 143
31 29 175
31 30 137
32 0 35
32 1 156
32 2 125
32 3 153
32 4 54
32 5 29
32 6 169
32 8 68
32 9 160
32 10 103
32 11 67
32 12 151
32 13 104
32 14 265
32 15 285
32 16 70
32 17 205
32 18 217
32 19 107
32 20 101
32 21 290
32 22 100
32 23 92
32 24 11
32 25 266
32 27 24
32 28 94
32 29 182
32 30 210
32 31 312
33 0 137
33 1 5
33 2 59
33 3 31
33 4 185
33 5 260
33 6 207
33 7 168
33 8 151
33 9 311
33 10 194
33 11 301
33 12 198
33 13 281
33 14 17
33 15 223
33 16 55
33 17 49
33 18 96
33 19 290
33 20 269
33 21 252
33 22 264
33 23 273
33 24 156
33 25 163
33 26 110
33 27 120
33 28 99
33 29 191
33 30 201
33 31 308
33 32 238
34 0 183
34 1 274
34 2 235
34 3 159
34 5 301
34 6 315
34 7 22
34 8 249
34 10 285
34 13 167
34 14 98
34 15 153
34 16 200
34 17 36
34 18 43
34 19 218
34 20 151
34 21 118
34 22 168
34 23 74
34 24 285
34 25 27
34 26 304
34 27 240
34 28 146
34 30 265
34 31 230
34 32 301
34 33 203
35 0 18
35 1 314
35 2 32
35 3 44
35 4 243
35 5 288
35 6 67
35 7 164
35 9 98
35 10 301
35 11 152
35 12 76
35 13 276
35 14 229
35 15 255
35 16 238
35 17 290
35 18 199
35 19 240
35 20 316
35 21 75
35 22 270
35 23 235
35 25 63
35 26 245
35 28 204
35 29 232
35 30 16
35 31 134
35 32 95
35 33 193
35 34 115
36 0 251
36 1 26
36 2 255
36 3 284
36 4 280
36 5 316
36 7 249
36 8 269
36 10 255
36 12 30
36 13 135
36 14 124
36 15 67
36 16 170
36 17 214
36 18 302
36 19 301
36 20 94
36 21 43
36 22 267
36 23 95
36 24 121
36 26 120
36 27 187
36 28 285
36 29 315
36 30 179
36 31 83
36 33 149
36 34 128
37 0 165
37 1 9
37 2 156
37 3 35
37 4 158
37 5 285
37 6 1
37 7 88
37 8 62
37 9 113
37 10 144
37 11 272
37 12 224
37 13 61
37 14 263
37 15 244
37 16 8
37 17 109
37 18 170
37 19 88
37 20 307
37 21 254
37 22 162
37 23 220
37 24 140
37 25 233
37 26 104
37 28 239
37 29 126
37 31 284
37 32 41
37 33 201
37 34 31
37 36 239
38 0 29
38 1 46
38 2 8
38 4 200
38 7 290
38 8 9
38 9 116
38 10 306
38 11 17
38 12 229
38 13 84
38 14 227
38 15 178
38 16 63
38 17 14
38 18 74
38 19 205
38 20 309
38 21 183
38 22 318
38 23 285
38 24 304
38 25 192
38 26 246
38 27 229
38 28 255
38 29 264
38 30 180
38 31 236
38 32 6
38 33 85
38 34 320
38 35 227
38 36 8
38 37 62
39 0 240
39 1 287
39 2 46
39 3 71
39 5 64
39 6 200
39 7 183
39 8 125
39 9 68
39 10 70
39 11 171
39 12 221
39 13 20
39 14 140
39 15 262
39 16 89
39 17 112
39 18 140
39 19 59
39 20 8
39 22 21
39 23 125
39 25 217
39 26 237
39 27 204
39 28 173
39 29 213
39 30 217
39 31 278
39 32 227
39 33 161
39 34 229
39 35 223
39 36 25
39 37 133
39 38 181
